! wB97X-D3 6-31+G(d,p) TightSCF RIJCOSX SMD(Water)

%pal
  nprocs 8
end

%maxcore 1200

%tddft
  tda true
  nroots 30
  triplets false
end

* xyzfile 0 1 pdi_terminal_functionalized_opt.xyz
