! wB97X-D3 6-31+G(d,p) TightSCF RIJCOSX SMD(Water)

%pal
  nprocs 12
end

%maxcore 2000

%tddft
  tda true
  nroots 30
  triplets false
end

* xyzfile 0 1 pdi_opt.xyz