! r2SCAN-3c Opt TightOpt TightSCF NoSym

%pal
  nprocs 4
end

%maxcore 8000

%geom
  Calc_Hess true
  Recalc_Hess 5
end

* xyzfile 0 1 pdi_structure_initial.xyz
