! r2SCAN-3c Freq TightSCF NoSym

%pal
  nprocs 4
end

%maxcore 8000

* xyzfile 0 1 pdi_opt.xyz
