! wB97X-D3 6-31+G(d,p) TightSCF RIJCOSX SMD(Water)

%pal
    nprocs 4
end

%maxcore 2500

%tddft
    TDA true
    NRoots 10
    DoSOC true
    TPrint 1e-8
end

* xyzfile 0 1 pdi_terminal_functionalized_opt.xyz
